\* hql *\
Maximize
OBJ: 160 m1 + 435000 m2 + 160 n1 + 420000 n2
Subject To
_C1: m1 + n1 >= 30
_C2: - 1.6 m2 + n2 >= 0
_C3: m1 - 1.6 n1 >= 0
_C4: m3 - n1 - n2 - n3 >= -350
_C5: m1 + m2 + m3 + m4 <= 296
_C6: 0.05 m1 + 0.101162790698 m2 + 0.05 n1 + 0.0976744186047 n2 >= 32
Bounds
 1 <= m1 <= 296
 1 <= m2 <= 296
 1 <= m3 <= 296
 72 <= m4 <= 120
 2 <= n1 <= 350
 2 <= n2 <= 350
 71 <= n3 <= 145
End
